NAME : mEgtspf.pid32070.gtsp.268435632.tour
COMMENT : Length = 268435632
COMMENT : Found by LKH [Keld Helsgaun] Fri Mar  7 03:02:14 2025
TYPE : TOUR
DIMENSION : 170
TOUR_SECTION
1
36
37
38
35
2
150
147
148
149
133
134
131
132
46
43
44
45
118
115
116
117
114
111
112
113
137
138
135
136
59
60
61
62
110
107
108
109
122
119
120
121
52
53
54
51
101
102
99
100
40
41
42
39
96
97
98
95
12
13
14
11
4
7
8
162
159
160
161
22
19
20
21
155
156
157
158
9
154
151
152
153
5
145
146
143
144
129
130
127
128
16
17
18
15
49
50
47
48
6
55
56
57
58
78
75
76
77
105
106
103
104
10
83
84
85
86
3
28
29
30
27
89
90
87
88
166
163
164
165
126
123
124
125
94
91
92
93
69
70
67
68
24
25
26
23
141
142
139
140
73
74
71
72
82
79
80
81
34
31
32
33
63
64
65
66
169
170
167
168
-1
EOF
